120
150
42
50
58
52
58
40
57
60
54
54
59
49
52
45
57
50
46
51
47
50
42
54
56
49
50
40
44
59
42
56
47
44
50
59
54
54
53
53
50
50
50
57
49
57
50
43
42
57
47
46
52
41
57
57
53
41
40
49
57
50
46
44
54
50
52
44
54
48
55
52
53
50
45
44
58
58
52
52
54
51
41
40
49
57
50
50
43
46
56
43
54
50
46
42
60
60
53
53
59
48
48
60
45
58
49
44
46
50
43
45
54
55
52
43
57
46
57
47
43
50
